ATTRACTION = { A, B, C, D, E };
l = 2;
u = 4;

m = 2;

pair_attraction = [| 0, 2, -1, 3, 3
                   | 2, 0, -4, 5, 2
                   | -1, -4, 0, 3, -1
                   | 3, 5, 3, 0, 2
                   | 3, 2, -1, 2, 0|];

cost = [7, 2, 4, 2, 2];